
Gurobi 11.0.3 (linux64) logging started Wed Nov 12 20:05:26 2025

Set parameter LogFile to value "./log/train/CA_500_600_threads_0/CA_24.lp.log"
Set parameter TimeLimit to value 3600
Gurobi Optimizer version 11.0.3 build v11.0.3rc0 (linux64 - "Ubuntu 22.04.5 LTS")

CPU model: AMD Ryzen 9 9900X 12-Core Processor, instruction set [SSE2|AVX|AVX2|AVX512]
Thread count: 12 physical cores, 24 logical processors, using up to 24 threads

Optimize a model with 595 rows, 600 columns and 2721 nonzeros
Model fingerprint: 0x58ea9f05
Variable types: 0 continuous, 600 integer (600 binary)
Coefficient statistics:
  Matrix range     [1e+00, 1e+00]
  Objective range  [2e+01, 9e+02]
  Bounds range     [1e+00, 1e+00]
  RHS range        [1e+00, 1e+00]
Found heuristic solution: objective 19910.779233
Presolve removed 62 rows and 84 columns
Presolve time: 0.00s
Presolved: 533 rows, 516 columns, 2595 nonzeros
Found heuristic solution: objective 23620.885173
Variable types: 0 continuous, 516 integer (516 binary)
Found heuristic solution: objective 24651.552315

Root relaxation: objective 3.013219e+04, 1231 iterations, 0.03 seconds (0.06 work units)

    Nodes    |    Current Node    |     Objective Bounds      |     Work
 Expl Unexpl |  Obj  Depth IntInf | Incumbent    BestBd   Gap | It/Node Time

     0     0 30132.1942    0  291 24651.5523 30132.1942  22.2%     -    0s
H    0     0                    26057.127651 30132.1942  15.6%     -    0s
H    0     0                    26234.520194 30132.1942  14.9%     -    0s
H    0     0                    26362.568249 30132.1942  14.3%     -    0s
     0     0 29954.7364    0  290 26362.5682 29954.7364  13.6%     -    0s
     0     0 29912.7872    0  293 26362.5682 29912.7872  13.5%     -    0s
     0     0 29838.0143    0  302 26362.5682 29838.0143  13.2%     -    0s
     0     0 29838.0143    0  302 26362.5682 29838.0143  13.2%     -    0s
H    0     0                    26680.222085 29838.0143  11.8%     -    0s
     0     2 29838.0143    0  302 26680.2221 29838.0143  11.8%     -    0s
H   27    40                    26708.412056 29563.6631  10.7%   255    0s
H   32    40                    26740.693327 29559.3224  10.5%   241    0s
H   77    86                    26744.379372 29559.3224  10.5%   202    0s
H   83    86                    27944.523381 29559.3224  5.78%   199    0s
H   89   102                    27997.241710 29559.3224  5.58%   192    0s
H   90   102                    28055.545616 29559.3224  5.36%   192    0s
*  105   102               9    28112.320661 29559.3224  5.15%   181    0s
*  139   116              13    28136.453915 29559.3224  5.06%   156    0s

Cutting planes:
  Gomory: 5
  Clique: 23
  Zero half: 2
  RLT: 3
  BQP: 1

Explored 9017 nodes (805761 simplex iterations) in 2.44 seconds (7.94 work units)
Thread count was 24 (of 24 available processors)

Solution count 10: 28136.5 28112.3 28055.5 ... 26362.6

Optimal solution found (tolerance 1.00e-04)
Best objective 2.813645391525e+04, best bound 2.813645391525e+04, gap 0.0000%

User-callback calls 18802, time in user-callback 0.01 sec
